32	0

0	1	2
3	1	3
10	1	4
4	1	5
5	1	6
1	2	7	8
5	1	9
5	1	9
3	1	10
2	1	11
10	1	12
8	1	13
9	1	14
7	1	15
3	1	16
6	1	17
7	1	18
5	1	19
7	1	20
6	1	21
9	1	22
9	1	23
5	1	24
7	2	25	26
3	1	27
7	1	27
9	1	28
2	1	29
6	1	30
9	1	31
7	1	32
0	0
